\Generated by Cardinal Operations

Maximize
   4811 x_0_0 + 4811 x_0_1 + 4811 x_0_2 + 4811 x_0_3 + 4811 x_0_4 
   + 4811 x_0_5 + 4811 x_0_6 + 4811 x_0_7 + 4811 x_0_8 + 4811 x_0_9 
   + 4811 x_0_10 + 4811 x_0_11 + 4811 x_0_12 + 4811 x_0_13 + 4811 x_0_14 
   + 1130 x_1_0 + 1130 x_1_1 + 1130 x_1_2 + 1130 x_1_3 + 1130 x_1_4 
   + 1130 x_1_5 + 1130 x_1_6 + 1130 x_1_7 + 1130 x_1_8 + 1130 x_1_9 
   + 1130 x_1_10 + 1130 x_1_11 + 1130 x_1_12 + 1130 x_1_13 + 1130 x_1_14 
   + 1611 x_2_0 + 1611 x_2_1 + 1611 x_2_2 + 1611 x_2_3 + 1611 x_2_4 
   + 1611 x_2_5 + 1611 x_2_6 + 1611 x_2_7 + 1611 x_2_8 + 1611 x_2_9 
   + 1611 x_2_10 + 1611 x_2_11 + 1611 x_2_12 + 1611 x_2_13 + 1611 x_2_14 
   + 3368 x_3_0 + 3368 x_3_1 + 3368 x_3_2 + 3368 x_3_3 + 3368 x_3_4 
   + 3368 x_3_5 + 3368 x_3_6 + 3368 x_3_7 + 3368 x_3_8 + 3368 x_3_9 
   + 3368 x_3_10 + 3368 x_3_11 + 3368 x_3_12 + 3368 x_3_13 + 3368 x_3_14 
   + 2135 x_4_0 + 2135 x_4_1 + 2135 x_4_2 + 2135 x_4_3 + 2135 x_4_4 
   + 2135 x_4_5 + 2135 x_4_6 + 2135 x_4_7 + 2135 x_4_8 + 2135 x_4_9 
   + 2135 x_4_10 + 2135 x_4_11 + 2135 x_4_12 + 2135 x_4_13 + 2135 x_4_14 
   + 1046 x_5_0 + 1046 x_5_1 + 1046 x_5_2 + 1046 x_5_3 + 1046 x_5_4 
   + 1046 x_5_5 + 1046 x_5_6 + 1046 x_5_7 + 1046 x_5_8 + 1046 x_5_9 
   + 1046 x_5_10 + 1046 x_5_11 + 1046 x_5_12 + 1046 x_5_13 + 1046 x_5_14 
   + 4030 x_6_0 + 4030 x_6_1 + 4030 x_6_2 + 4030 x_6_3 + 4030 x_6_4 
   + 4030 x_6_5 + 4030 x_6_6 + 4030 x_6_7 + 4030 x_6_8 + 4030 x_6_9 
   + 4030 x_6_10 + 4030 x_6_11 + 4030 x_6_12 + 4030 x_6_13 + 4030 x_6_14 
   + 3761 x_7_0 + 3761 x_7_1 + 3761 x_7_2 + 3761 x_7_3 + 3761 x_7_4 
   + 3761 x_7_5 + 3761 x_7_6 + 3761 x_7_7 + 3761 x_7_8 + 3761 x_7_9 
   + 3761 x_7_10 + 3761 x_7_11 + 3761 x_7_12 + 3761 x_7_13 + 3761 x_7_14 
   + 3523 x_8_0 + 3523 x_8_1 + 3523 x_8_2 + 3523 x_8_3 + 3523 x_8_4 
   + 3523 x_8_5 + 3523 x_8_6 + 3523 x_8_7 + 3523 x_8_8 + 3523 x_8_9 
   + 3523 x_8_10 + 3523 x_8_11 + 3523 x_8_12 + 3523 x_8_13 + 3523 x_8_14 
   + 1701 x_9_0 + 1701 x_9_1 + 1701 x_9_2 + 1701 x_9_3 + 1701 x_9_4 
   + 1701 x_9_5 + 1701 x_9_6 + 1701 x_9_7 + 1701 x_9_8 + 1701 x_9_9 
   + 1701 x_9_10 + 1701 x_9_11 + 1701 x_9_12 + 1701 x_9_13 + 1701 x_9_14 
Subject To
 capacity_constraint: 114 x_0_0 + 200 x_1_0 + 106 x_2_0 + 256 x_3_0 
   + 268 x_4_0 + 185 x_5_0 + 299 x_6_0 + 131 x_7_0 + 139 x_8_0 + 105 x_9_0 
   <= 1083
 114 x_0_1 + 200 x_1_1 + 106 x_2_1 + 256 x_3_1 + 268 x_4_1 + 185 x_5_1 
   + 299 x_6_1 + 131 x_7_1 + 139 x_8_1 + 105 x_9_1 <= 1840
 114 x_0_2 + 200 x_1_2 + 106 x_2_2 + 256 x_3_2 + 268 x_4_2 + 185 x_5_2 
   + 299 x_6_2 + 131 x_7_2 + 139 x_8_2 + 105 x_9_2 <= 770
 114 x_0_3 + 200 x_1_3 + 106 x_2_3 + 256 x_3_3 + 268 x_4_3 + 185 x_5_3 
   + 299 x_6_3 + 131 x_7_3 + 139 x_8_3 + 105 x_9_3 <= 1299
 114 x_0_4 + 200 x_1_4 + 106 x_2_4 + 256 x_3_4 + 268 x_4_4 + 185 x_5_4 
   + 299 x_6_4 + 131 x_7_4 + 139 x_8_4 + 105 x_9_4 <= 1259
 114 x_0_5 + 200 x_1_5 + 106 x_2_5 + 256 x_3_5 + 268 x_4_5 + 185 x_5_5 
   + 299 x_6_5 + 131 x_7_5 + 139 x_8_5 + 105 x_9_5 <= 543
 114 x_0_6 + 200 x_1_6 + 106 x_2_6 + 256 x_3_6 + 268 x_4_6 + 185 x_5_6 
   + 299 x_6_6 + 131 x_7_6 + 139 x_8_6 + 105 x_9_6 <= 1831
 114 x_0_7 + 200 x_1_7 + 106 x_2_7 + 256 x_3_7 + 268 x_4_7 + 185 x_5_7 
   + 299 x_6_7 + 131 x_7_7 + 139 x_8_7 + 105 x_9_7 <= 855
 114 x_0_8 + 200 x_1_8 + 106 x_2_8 + 256 x_3_8 + 268 x_4_8 + 185 x_5_8 
   + 299 x_6_8 + 131 x_7_8 + 139 x_8_8 + 105 x_9_8 <= 619
 114 x_0_9 + 200 x_1_9 + 106 x_2_9 + 256 x_3_9 + 268 x_4_9 + 185 x_5_9 
   + 299 x_6_9 + 131 x_7_9 + 139 x_8_9 + 105 x_9_9 <= 637
 114 x_0_10 + 200 x_1_10 + 106 x_2_10 + 256 x_3_10 + 268 x_4_10 
   + 185 x_5_10 + 299 x_6_10 + 131 x_7_10 + 139 x_8_10 + 105 x_9_10 <= 935
 114 x_0_11 + 200 x_1_11 + 106 x_2_11 + 256 x_3_11 + 268 x_4_11 
   + 185 x_5_11 + 299 x_6_11 + 131 x_7_11 + 139 x_8_11 + 105 x_9_11 <= 626
 114 x_0_12 + 200 x_1_12 + 106 x_2_12 + 256 x_3_12 + 268 x_4_12 
   + 185 x_5_12 + 299 x_6_12 + 131 x_7_12 + 139 x_8_12 + 105 x_9_12 <= 1457
 114 x_0_13 + 200 x_1_13 + 106 x_2_13 + 256 x_3_13 + 268 x_4_13 
   + 185 x_5_13 + 299 x_6_13 + 131 x_7_13 + 139 x_8_13 + 105 x_9_13 <= 1198
 114 x_0_14 + 200 x_1_14 + 106 x_2_14 + 256 x_3_14 + 268 x_4_14 
   + 185 x_5_14 + 299 x_6_14 + 131 x_7_14 + 139 x_8_14 + 105 x_9_14 <= 837
Generals
 x_0_0  x_0_1  x_0_2  x_0_3  x_0_4  x_0_5  x_0_6  x_0_7  x_0_8  x_0_9  
 x_0_10  x_0_11  x_0_12  x_0_13  x_0_14  x_1_0  x_1_1  x_1_2  x_1_3  x_1_4  
 x_1_5  x_1_6  x_1_7  x_1_8  x_1_9  x_1_10  x_1_11  x_1_12  x_1_13  x_1_14  
 x_2_0  x_2_1  x_2_2  x_2_3  x_2_4  x_2_5  x_2_6  x_2_7  x_2_8  x_2_9  
 x_2_10  x_2_11  x_2_12  x_2_13  x_2_14  x_3_0  x_3_1  x_3_2  x_3_3  x_3_4  
 x_3_5  x_3_6  x_3_7  x_3_8  x_3_9  x_3_10  x_3_11  x_3_12  x_3_13  x_3_14  
 x_4_0  x_4_1  x_4_2  x_4_3  x_4_4  x_4_5  x_4_6  x_4_7  x_4_8  x_4_9  
 x_4_10  x_4_11  x_4_12  x_4_13  x_4_14  x_5_0  x_5_1  x_5_2  x_5_3  x_5_4  
 x_5_5  x_5_6  x_5_7  x_5_8  x_5_9  x_5_10  x_5_11  x_5_12  x_5_13  x_5_14  
 x_6_0  x_6_1  x_6_2  x_6_3  x_6_4  x_6_5  x_6_6  x_6_7  x_6_8  x_6_9  
 x_6_10  x_6_11  x_6_12  x_6_13  x_6_14  x_7_0  x_7_1  x_7_2  x_7_3  x_7_4  
 x_7_5  x_7_6  x_7_7  x_7_8  x_7_9  x_7_10  x_7_11  x_7_12  x_7_13  x_7_14  
 x_8_0  x_8_1  x_8_2  x_8_3  x_8_4  x_8_5  x_8_6  x_8_7  x_8_8  x_8_9  
 x_8_10  x_8_11  x_8_12  x_8_13  x_8_14  x_9_0  x_9_1  x_9_2  x_9_3  x_9_4  
 x_9_5  x_9_6  x_9_7  x_9_8  x_9_9  x_9_10  x_9_11  x_9_12  x_9_13  x_9_14  
END

